(declare-sort $$unsorted 0)
(declare-fun tptp.op ($$unsorted $$unsorted) $$unsorted)
(assert (forall ((X0 $$unsorted) (X1 $$unsorted) (X2 $$unsorted) (X3 $$unsorted)) (= X0 (tptp.op (tptp.op X0 (tptp.op X1 (tptp.op X2 X0))) X2))))
(assert (not (forall ((X0 $$unsorted) (X1 $$unsorted) (X2 $$unsorted) (X3 $$unsorted)) (= X0 (tptp.op (tptp.op X0 X1) (tptp.op X0 (tptp.op X2 X3)))))))
(set-info :filename Equation2275_implies_Equation1450)
(check-sat-assuming ( true ))
